0 4868
1 4844
2 4803
7 4748
16 4730
23 4704
25 4683
27 4673
29 4641
32 4628
34 4607
44 4602
46 4594
49 4591
50 4589
53 4548
58 4517
65 4511
70 4507
92 4499
93 4492
133 4491
140 4488
147 4478
178 4465
182 4443
189 4442
194 4437
213 4426
216 4424
219 4416
222 4409
223 4388
224 4387
235 4378
246 4368
249 4363
269 4351
273 4339
278 4327
282 4326
288 4323
290 4315
340 4306
366 4305
394 4298
399 4288
446 4280
552 4270
589 4268
611 4265
637 4259
677 4247
703 4236
779 4205
802 4168
865 4164
947 4156
1239 4154
1303 4141
1457 4140
1605 4136
1794 4130
1864 4127
1897 4126
1916 4117
1960 4116
2035 4102
2086 4096
2125 4093
2129 4092
2251 4089
2414 4084
2500 4079
2510 4078
2714 4076
2720 4074
2975 4070
3140 4060
3251 4058
3435 4057
3631 4054
4131 4050
4152 4046
4180 4045
